Minimize
  obj: x0 + x1 + x2 + x3 + x4 + x5 + x6 + x7 + x8 + x9

Subject To
  c0: x2 + x3 + x7 + x8 + x9 = 23
  c1: x0 + x2 + x3 + x6 + x7 + x9 = 39
  c2: x2 + x5 + x6 + x7 + x8 = 38
  c3: x1 + x2 + x3 + x8 = 32
  c4: x1 + x3 + x5 + x6 + x8 = 42
  c5: x2 + x3 + x4 + x6 + x8 = 44
  c6: x1 + x2 + x7 + x8 + x9 = 38
  c7: x1 + x2 + x3 + x4 + x6 + x7 + x8 + x9 = 69
  c8: x0 + x1 + x2 + x3 + x9 = 38
  c9: x0 + x1 + x3 + x5 + x6 + x7 + x8 = 56

Bounds
  x0 >= 0
  x1 >= 0
  x2 >= 0
  x3 >= 0
  x4 >= 0
  x5 >= 0
  x6 >= 0
  x7 >= 0
  x8 >= 0
  x9 >= 0

Generals
  x0 x1 x2 x3 x4 x5 x6 x7 x8 x9

End
